
Gurobi 9.0.3 (mac64) logging started Fri Oct 30 15:36:02 2020

Gurobi Optimizer version 9.0.3 build v9.0.3rc0 (mac64)
Optimize a model with 62587 rows, 46189 columns and 229427 nonzeros
Model fingerprint: 0x4fca71ff
Coefficient statistics:
  Matrix range     [1e+00, 2e+03]
  Objective range  [1e+00, 1e+00]
  Bounds range     [1e+00, 1e+00]
  RHS range        [1e+00, 2e+00]

Concurrent LP optimizer: dual simplex and barrier
Showing barrier log only...

Presolve removed 66 rows and 1 columns
Presolve time: 0.29s
Presolved: 62521 rows, 46188 columns, 228184 nonzeros

Ordering time: 3.40s

Barrier statistics:
 AA' NZ     : 1.295e+06
 Factor NZ  : 6.148e+06 (roughly 100 MBytes of memory)
 Factor Ops : 1.816e+09 (less than 1 second per iteration)
 Threads    : 1

                  Objective                Residual
Iter       Primal          Dual         Primal    Dual     Compl     Time
   0   9.18455498e+05 -3.62487837e+05  9.15e+05 6.51e-02  2.38e+02     5s
   1   3.98699531e+05 -4.10545466e+05  3.55e+05 2.81e-01  1.24e+02     5s
   2   2.13296987e+05 -6.77338508e+05  1.87e+05 2.28e-02  4.43e+01     5s
   3   5.82974146e+04 -5.15865846e+05  4.25e+04 1.11e-14  1.07e+01     6s
   4   2.81624892e+04 -2.59690112e+05  1.48e+04 1.07e-14  3.61e+00     7s
   5   2.52113031e+04 -9.81487131e+04  1.23e+04 2.04e-14  2.00e+00     7s
   6   2.07937979e+04 -6.88176026e+04  1.02e+04 2.48e-13  1.83e+00     8s
   7   4.39552860e+03 -4.51468430e+04  1.56e+03 2.58e-13  5.64e-01     8s
   8   1.44108420e+03 -6.10124398e+03  6.22e-10 4.17e-13  6.10e-02     9s
   9   1.36178172e+03 -9.14186395e+02  2.42e-10 1.06e-13  1.84e-02    10s
  10   1.28020861e+03 -5.52123621e+02  1.21e-11 7.35e-14  1.48e-02    11s
  11   8.03148774e+02 -8.52372258e+01  1.01e-09 8.44e-15  7.19e-03    11s
  12   3.22139974e+02 -1.11671552e+01  1.96e-10 1.89e-15  2.70e-03    13s
  13   2.04803019e+02  4.20438348e+01  1.32e-10 6.66e-16  1.32e-03    14s
  14   2.00430808e+02  8.22748384e+01  6.93e-11 5.55e-16  9.56e-04    15s
  15   1.79537515e+02  1.33902933e+02  8.58e-11 6.66e-16  3.69e-04    16s
  16   1.68817067e+02  1.51752301e+02  1.18e-10 6.66e-16  1.38e-04    17s
  17   1.63814165e+02  1.56192092e+02  3.92e-11 7.77e-16  6.17e-05    17s
  18   1.61161196e+02  1.57308731e+02  1.93e-11 6.66e-16  3.12e-05    18s
